60
7
5
1
36 30
100 45
130 50
40 130
70 110
135 100
36 30
100 45
130 50
40 130
70 110
135 100
111 101
120 47
58 108
135 129
114 94
92 46
96 51
132 45
105 26
100 42
106 43
69 115
52 149
123 50
34 15
16 149
79 31
130 4
129 47
101 49
139 31
123 45
123 93
98 61
121 44
134 51
57 104
45 135
114 102
62 32
159 99
52 38
124 95
26 132
145 50
103 4
120 100
98 90
65 107
86 106
65 58
140 51
118 52
57 130
124 49
114 95
152 95
79 103
24 30
18 28
50 16
69 135
144 35
94 140
66 115
140 51
128 52
66 27
138 101
118 94
